data;
param nombreJob := 7;
param nombreRessource := 3;
param duree := 1 9 2 9 3 9 4 8 5 3 6 4 7 3;
param capaciteRessource := 1 7 2 15 3 10;
param besoinRessource : 1 2 3 :=
                    1   3 7 5
                    2   1 5 1
                    3   3 3 6
                    4   4 1 9
                    5   2 2 4
                    6   3 5 10
                    7   3 7 4;
end;

